(set-option :produce-models true)
(set-logic QF_UF)
(declare-fun p45() Bool)
(declare-fun p18() Bool)
(declare-fun p32() Bool)
(declare-fun p8() Bool)
(declare-fun p34() Bool)
(declare-fun p31() Bool)
(declare-fun p42() Bool)
(declare-fun p38() Bool)
(declare-fun p0() Bool)
(declare-fun p39() Bool)
(declare-fun p44() Bool)
(declare-fun p10() Bool)
(declare-fun p7() Bool)
(declare-fun p14() Bool)
(declare-fun p29() Bool)
(declare-fun p26() Bool)
(declare-fun p11() Bool)
(declare-fun p19() Bool)
(declare-fun p36() Bool)
(declare-fun p3() Bool)
(declare-fun p35() Bool)
(declare-fun p22() Bool)
(declare-fun p9() Bool)
(declare-fun p2() Bool)
(declare-fun p48() Bool)
(declare-fun p13() Bool)
(declare-fun p49() Bool)
(declare-fun p24() Bool)
(declare-fun p25() Bool)
(declare-fun p6() Bool)
(declare-fun p12() Bool)
(declare-fun p17() Bool)
(declare-fun p4() Bool)
(declare-fun p46() Bool)
(declare-fun p40() Bool)
(declare-fun p23() Bool)
(declare-fun p47() Bool)
(declare-fun p15() Bool)
(declare-fun p43() Bool)
(declare-fun p20() Bool)
(declare-fun p27() Bool)
(declare-fun p30() Bool)
(declare-fun p28() Bool)
(declare-fun p33() Bool)
(declare-fun p21() Bool)
(declare-fun p41() Bool)
(declare-fun p1() Bool)
(declare-fun p16() Bool)
(declare-fun p37() Bool)
(declare-fun p5() Bool)
(assert
(and (or p45 p18 (not p32)) (or (not p8) (not p34) p31) (or p42 p38 p38) (or p0 (not p45) (not p39)) (or p42 (not p0) (not p44)) (or p10 p7 (not p14)) (or (not p29) p26 p8) (or (not p11) (not p19) p36) (or p14 (not p3) p7) (or (not p35) (not p22) (not p9)) (or p39 p31 p11) (or (not p8) p10 (not p2)) (or p48 (not p13) p34) (or p49 (not p10) (not p44)) (or (not p24) (not p25) p38) (or p6 p8 p12) (or (not p6) p17 (not p4)) (or (not p46) p12 p10) (or p14 p2 p40) (or (not p11) (not p23) (not p18)) (or (not p19) (not p25) (not p24)) (or p38 p47 (not p25)) (or p22 (not p15) p0) (or (not p38) (not p38) p43) (or (not p18) (not p20) p34) (or p4 p12 (not p8)) (or (not p32) p15 (not p6)) (or p44 (not p17) (not p27)) (or (not p32) (not p44) p13) (or (not p48) p25 (not p25)) (or (not p2) (not p30) p39) (or (not p24) p31 (not p35)) (or (not p18) p11 (not p3)) (or (not p28) p33 p21) (or (not p17) (not p11) p38) (or (not p18) (not p12) p35) (or p41 p1 p15) (or (not p25) p45 p14) (or (not p36) (not p30) (not p43)) (or (not p8) p11 p7) (or (not p31) (not p16) p10) (or p44 p44 (not p3)) (or (not p20) p29 p44) (or p0 (not p13) (not p36)) (or (not p49) (not p35) p38) (or (not p22) p36 p3) (or (not p33) p46 p9) (or (not p12) (not p2) (not p18)) (or p2 (not p36) (not p18)) (or (not p8) (not p18) (not p40)) (or (not p23) (not p44) p11) (or (not p11) (not p47) p30) (or (not p19) p44 p37) (or (not p10) (not p7) p38) (or (not p10) p31 p37) (or (not p30) p28 p17) (or (not p8) p29 p30) (or p46 p26 p8) (or p42 (not p45) (not p11)) (or (not p14) p45 (not p6)) (or (not p26) p25 p8) (or p36 p46 p6) (or (not p9) p33 (not p0)) (or p12 (not p27) p7) (or p42 (not p9) p18) (or (not p14) (not p46) p25) (or p14 (not p21) p10) (or (not p10) (not p4) (not p38)) (or p24 p12 p30) (or (not p24) (not p15) (not p37)) (or p19 (not p39) (not p20)) (or p8 p26 (not p10)) (or p16 (not p40) (not p35)) (or p37 p27 (not p49)) (or (not p41) (not p30) (not p6)) (or (not p41) (not p5) (not p27)) (or p42 (not p29) (not p36)) (or (not p37) p35 (not p43)) (or (not p24) p45 (not p0)) (or p12 p27 p38) (or (not p28) (not p18) (not p16)) (or (not p44) (not p43) p26) (or p26 p48 (not p34)) (or p32 p37 p29) (or (not p28) p23 p13) (or p1 p28 (not p31)) (or (not p5) p49 p39) (or p43 (not p39) (not p8)) (or p15 p14 (not p37)) (or p46 p1 p29) (or (not p41) (not p5) p42) (or p1 p4 (not p18)) (or p43 p2 (not p17)) (or p15 (not p6) p31) (or (not p44) (not p35) p34) (or (not p17) (not p42) p29) (or p35 p25 p28) (or (not p12) (not p13) (not p30)) (or (not p17) (not p12) p4) (or p48 p21 (not p11)) (or p40 (not p13) (not p11)) (or p26 p5 p25) (or (not p2) (not p10) p30) (or p5 p48 (not p40)) (or p0 (not p7) (not p28)) (or (not p21) p7 (not p3)) (or (not p6) (not p15) (not p17)) (or (not p3) p44 p30) (or p39 (not p30) p34) (or p13 (not p2) p39) (or p33 (not p19) p27) (or (not p34) (not p2) (not p20)) (or (not p40) (not p40) p7) (or (not p37) p45 (not p45)) (or (not p0) p13 p34) (or (not p44) p3 (not p17)) (or (not p0) p24 p49) (or (not p16) (not p33) (not p18)) (or (not p13) (not p28) p44) (or (not p37) (not p0) p1) (or p43 p37 p30) (or p20 (not p18) (not p12)) (or p1 (not p28) (not p11)) (or (not p28) p4 p30) (or (not p16) (not p18) (not p4)) (or (not p5) p35 (not p36)) (or p15 p5 (not p27)) (or p22 (not p3) p11) (or (not p9) (not p29) (not p37)) (or (not p36) p43 p16) (or (not p29) p27 (not p20)) (or (not p16) (not p32) p18) (or p38 (not p47) p3) (or p6 p41 (not p24)) (or p38 (not p46) (not p33)) (or p35 (not p26) (not p45)) (or p27 p13 (not p20)) (or (not p2) p29 (not p46)) (or (not p31) p22 p48) (or (not p33) (not p10) (not p30)) (or (not p43) p27 p20) (or p41 p39 (not p43)) (or p15 p7 p7) (or p3 p10 (not p20)) (or p10 p8 p44) (or p22 (not p44) p15) (or p43 (not p5) (not p30)) (or (not p18) (not p4) p9) (or p8 p44 (not p29)) (or p32 p44 (not p33)) (or (not p26) (not p38) (not p48)) (or (not p47) (not p27) (not p24)) (or p48 (not p34) p24) (or p3 (not p30) (not p13)) (or p44 p44 (not p19)) (or (not p11) (not p41) (not p5)) (or p28 p17 (not p32)) (or p5 (not p45) (not p49)) (or (not p5) p48 (not p26)) (or p10 p11 (not p39)) (or p9 p39 p38) (or (not p14) (not p25) (not p26)) (or p28 p38 (not p18)) (or p40 (not p17) p0) (or (not p41) p22 (not p24)) (or (not p18) p0 p49) (or p2 p19 (not p25)) (or p39 (not p2) (not p3)) (or (not p31) (not p27) p37) (or p2 (not p48) (not p19)) (or p29 (not p40) p41) (or (not p45) p14 (not p7)) (or p20 p24 (not p43)) (or p3 (not p23) (not p5)) (or p26 (not p14) (not p18)) (or p34 p31 p42) (or p49 (not p30) p2) (or p40 (not p5) p37) (or p43 (not p8) p6) (or (not p46) (not p6) (not p42)) (or p4 p42 p10) (or p27 p17 p49) (or p0 p1 (not p11)) (or p46 p9 (not p19)) (or (not p36) (not p18) (not p0)) (or p20 (not p31) p39) (or p38 p10 (not p47)) (or (not p2) (not p30) (not p28)) (or p48 p27 (not p40)) (or (not p26) p0 p17) (or (not p23) (not p46) (not p14)) (or p42 (not p19) (not p17)) (or p0 p10 (not p29)) (or (not p4) (not p24) p28) (or (not p25) p35 (not p38)) (or p27 (not p18) p40) (or p36 (not p21) p17) (or (not p46) (not p48) (not p12)) (or (not p22) p11 p37) (or (not p21) p18 (not p48)) (or p0 p29 p26) (or p1 p41 p20) (or (not p13) p45 p19) (or (not p35) p40 p4) (or (not p17) p16 (not p38)) (or p22 (not p1) p0) (or (not p30) (not p45) p30) (or (not p32) p22 p2) (or p49 (not p28) p10) (or (not p39) p10 p4))
)
(check-sat)
(get-model)
